p cnf 122 428
-3 -1 0
-3 2 0
1 -2 3 0
6 -4 0
6 -5 0
4 5 -6 0
-7 8 -9 0
7 -8 -9 0
-7 -8 9 0
7 8 9 0
-10 6 0
-10 -9 0
-6 9 10 0
-10 -5 -11 0
10 5 -11 0
-10 5 11 0
10 -5 11 0
-3 -11 -12 0
3 11 -12 0
-3 11 12 0
3 -11 12 0
8 5 -14 0
-8 -5 -14 0
8 -5 14 0
-8 5 14 0
-15 -13 0
-15 14 0
13 -14 15 0
-16 -15 0
-16 9 0
15 -9 16 0
-8 -17 -18 0
8 17 -18 0
-8 17 18 0
8 -17 18 0
-19 -5 0
-19 -18 0
5 18 19 0
-20 -16 0
-20 19 0
16 -19 20 0
-21 -8 0
-21 -5 0
8 5 21 0
20 -21 -22 0
-20 21 -22 0
20 21 22 0
-20 -21 22 0
24 -23 0
24 7 0
23 -7 -24 0
-8 -4 -25 0
8 4 -25 0
-8 4 25 0
8 -4 25 0
26 -24 0
26 25 0
24 -25 -26 0
-27 15 0
-27 4 0
-15 -4 27 0
28 -26 0
28 -27 0
26 27 -28 0
-30 29 0
-30 -19 0
-29 19 30 0
31 30 0
31 7 0
-30 -7 -31 0
32 21 0
32 -31 0
-21 31 -32 0
33 -28 0
33 -32 0
28 32 -33 0
34 -22 0
34 -33 0
22 33 -34 0
-12 34 -35 0
12 -34 -35 0
-12 -34 35 0
12 34 35 0
36 -29 0
36 9 0
29 -9 -36 0
-37 -21 0
-37 36 0
21 -36 37 0
38 1 0
38 -8 0
-1 8 -38 0
39 -23 0
39 -38 0
23 38 -39 0
40 5 0
40 6 0
-5 -6 -40 0
41 39 0
41 40 0
-39 -40 -41 0
41 -23 -42 0
-41 23 -42 0
41 23 42 0
-41 -23 42 0
-43 -37 0
-43 -42 0
37 42 43 0
-44 35 0
-44 43 0
-35 -43 44 0
-45 -8 0
-45 -17 0
8 17 45 0
-45 -15 -46 0
45 15 -46 0
-45 15 46 0
45 -15 46 0
47 -6 0
47 -31 0
6 31 -47 0
48 -46 0
48 -47 0
46 47 -48 0
51 49 0
51 -50 0
-49 50 -51 0
51 -6 -52 0
-51 6 -52 0
51 6 52 0
-51 -6 52 0
53 -50 0
53 -25 0
50 25 -53 0
53 -4 -54 0
-53 4 -54 0
53 4 54 0
-53 -4 54 0
-52 54 -55 0
52 -54 -55 0
-52 -54 55 0
52 54 55 0
23 36 -56 0
-23 -36 -56 0
23 -36 56 0
-23 36 56 0
-57 -55 0
-57 -56 0
55 56 57 0
58 -20 0
58 25 0
20 -25 -58 0
9 -19 -59 0
-9 19 -59 0
9 19 59 0
-9 -19 59 0
60 58 0
60 59 0
-58 -59 -60 0
-61 -13 0
-61 -36 0
13 36 61 0
62 60 0
62 61 0
-60 -61 -62 0
63 -38 0
63 8 0
38 -8 -63 0
-64 4 0
-64 -38 0
-4 38 64 0
65 63 0
65 64 0
-63 -64 -65 0
-66 62 0
-66 -65 0
-62 65 66 0
67 -57 0
67 -66 0
57 66 -67 0
48 67 -68 0
-48 -67 -68 0
48 -67 68 0
-48 67 68 0
70 15 0
70 -6 0
-15 6 -70 0
-71 9 0
-71 -9 0
-70 71 -72 0
70 -71 -72 0
-70 -71 72 0
70 71 72 0
-69 72 -73 0
69 -72 -73 0
-69 -72 73 0
69 72 73 0
74 6 0
74 7 0
-6 -7 -74 0
-75 74 0
-75 -36 0
-74 36 75 0
-76 75 0
-76 -20 0
-75 20 76 0
-77 -6 0
-77 -8 0
6 8 77 0
-77 15 -78 0
77 -15 -78 0
-77 -15 78 0
77 15 78 0
79 -76 0
79 -78 0
76 78 -79 0
73 -79 -80 0
-73 79 -80 0
73 79 80 0
-73 -79 80 0
-82 25 0
-82 -81 0
-25 81 82 0
83 58 0
83 -70 0
-58 70 -83 0
-84 19 0
-84 -74 0
-19 74 84 0
85 83 0
85 84 0
-83 -84 -85 0
86 82 0
86 -85 0
-82 85 -86 0
80 86 -87 0
-80 -86 -87 0
80 -86 87 0
-80 86 87 0
-88 -17 0
-88 -84 0
17 84 88 0
-19 29 -89 0
19 -29 -89 0
-19 -29 89 0
19 29 89 0
90 89 0
90 -18 0
-89 18 -90 0
-91 -1 0
-91 41 0
1 -41 91 0
92 -36 0
92 91 0
36 -91 -92 0
-93 -90 0
-93 92 0
90 -92 93 0
94 8 0
94 -50 0
-8 50 -94 0
95 15 0
95 -39 0
-15 39 -95 0
-96 36 0
-96 -95 0
-36 95 96 0
-97 94 0
-97 -96 0
-94 96 97 0
-93 97 -98 0
93 -97 -98 0
-93 -97 98 0
93 97 98 0
-88 -98 -99 0
88 98 -99 0
-88 98 99 0
88 -98 99 0
100 92 0
100 -16 0
-92 16 -100 0
101 17 0
101 39 0
-17 -39 -101 0
-102 -101 0
-102 -25 0
101 25 102 0
103 23 0
103 -8 0
-23 8 -103 0
40 8 -104 0
-40 -8 -104 0
40 -8 104 0
-40 8 104 0
105 -20 0
105 -104 0
20 104 -105 0
-103 -105 -106 0
103 105 -106 0
-103 105 106 0
103 -105 106 0
-102 -106 -107 0
102 106 -107 0
-102 106 107 0
102 -106 107 0
6 4 -108 0
-6 -4 -108 0
6 -4 108 0
-6 4 108 0
108 21 -109 0
-108 -21 -109 0
108 -21 109 0
-108 21 109 0
110 107 0
110 -109 0
-107 109 -110 0
111 -100 0
111 110 0
100 -110 -111 0
-53 -7 -112 0
53 7 -112 0
-53 7 112 0
53 -7 112 0
-113 112 0
-113 63 0
-112 -63 113 0
114 24 0
114 9 0
-24 -9 -114 0
58 101 -115 0
-58 -101 -115 0
58 -101 115 0
-58 101 115 0
116 -114 0
116 115 0
114 -115 -116 0
-117 113 0
-117 116 0
-113 -116 117 0
-118 -111 0
-118 -117 0
111 117 118 0
-99 118 -119 0
99 -118 -119 0
-99 -118 119 0
99 118 119 0
-87 -119 -120 0
87 119 -120 0
-87 119 120 0
87 -119 120 0
121 -68 0
121 120 0
68 -120 -121 0
122 -44 0
122 121 0
44 -121 -122 0
-6 18 -98 67 0
-99 43 41 62 59 0
-30 -49 80 0
81 16 0
-65 -90 1 38 -122 0
-92 -53 21 27 -38 0
36 66 0
42 44 20 50 -87 51 0
94 -53 0
-1 98 0
-97 -30 82 -74 0
-39 4 -25 101 16 0
-29 120 15 0
16 -101 -39 95 -12 0
113 122 0
-115 -69 -73 -12 106 0
8 -86 74 -53 34 0
38 -15 -119 8 -82 50 0
-118 75 121 0
53 -65 -118 87 -21 0
28 -61 0
-17 -100 -30 121 0
-112 -82 7 46 37 108 0
-105 -27 -57 0
97 -51 54 37 11 0
118 -93 -96 -50 0
97 -17 20 -76 96 0
90 63 118 -91 0
-78 -60 37 -102 4 115 0
-83 -87 25 0
28 88 -72 0
64 106 73 14 -57 0
-112 16 -68 -42 -59 7 0
-101 -33 -78 0
101 66 0
103 -56 -28 -15 90 0
-56 -112 -5 16 23 10 0
-56 -95 -43 114 0
107 84 2 0
-41 -107 0
-3 45 114 -121 -112 101 0
-52 30 0
62 42 28 119 -89 -15 0
15 -109 -19 -29 0
81 -110 68 0
-35 104 -103 -61 100 -11 0
45 -38 47 15 0
45 -106 -99 0
-103 -116 -114 0
52 -58 -47 -92 0
-1 5 -2 91 0
-74 -48 82 42 83 0
37 -117 39 70 0
-37 58 -33 0
-117 -85 -71 0
51 84 -30 0
83 113 15 66 0
-71 74 0
23 -3 -61 0
-120 -31 117 0
-22 118 27 0
16 -111 80 8 0
-40 -67 17 -96 89 18 0
113 -80 89 -14 82 0
8 -102 99 0
-92 42 75 -43 -51 0
-7 -87 76 0
-49 91 71 -62 0
-38 -91 96 -110 0
46 -116 0
-81 98 62 -48 -7 0
122 0
